O-Phase Ti2AlMo                         
   1.0000000000000000     
     6.1704912022324789    0.0000000000000000    0.0000000000000000
     0.0000000000000000    9.1929730498555973    0.0000000000000000
     0.0000000000000000   -0.0000000000000000    4.4891983501963182
   Ti   Al   Mo
     8     4     4
Direct
  0.2570116482284259  0.8878213164620867  0.2500000000000000
  0.7429883517715744  0.8878213164620867  0.2500000000000000
  0.7570116482284256  0.3878213164620795  0.2500000000000000
  0.2429883517715741  0.3878213164620795  0.2500000000000000
  0.7429883517715744  0.1121786835379133  0.7500000000000000
  0.2570116482284259  0.1121786835379133  0.7500000000000000
  0.2429883517715741  0.6121786835379133  0.7500000000000000
  0.7570116482284256  0.6121786835379133  0.7500000000000000
  0.0000000000000000  0.1428862335695232  0.2500000000000000
  0.0000000000000000  0.8571137664304770  0.7500000000000000
  0.5000000000000000  0.6428862335695230  0.2500000000000000
  0.5000000000000000  0.3571137664304770  0.7500000000000000
  0.0000000000000000  0.6339134561320370  0.2500000000000000
  0.0000000000000000  0.3660865438679636  0.7500000000000000
  0.5000000000000000  0.1339134561320368  0.2500000000000000
  0.5000000000000000  0.8660865438679630  0.7500000000000000

  0.00000000E+00  0.00000000E+00  0.00000000E+00
  0.00000000E+00  0.00000000E+00  0.00000000E+00
  0.00000000E+00  0.00000000E+00  0.00000000E+00
  0.00000000E+00  0.00000000E+00  0.00000000E+00
  0.00000000E+00  0.00000000E+00  0.00000000E+00
  0.00000000E+00  0.00000000E+00  0.00000000E+00
  0.00000000E+00  0.00000000E+00  0.00000000E+00
  0.00000000E+00  0.00000000E+00  0.00000000E+00
  0.00000000E+00  0.00000000E+00  0.00000000E+00
  0.00000000E+00  0.00000000E+00  0.00000000E+00
  0.00000000E+00  0.00000000E+00  0.00000000E+00
  0.00000000E+00  0.00000000E+00  0.00000000E+00
  0.00000000E+00  0.00000000E+00  0.00000000E+00
  0.00000000E+00  0.00000000E+00  0.00000000E+00
  0.00000000E+00  0.00000000E+00  0.00000000E+00
  0.00000000E+00  0.00000000E+00  0.00000000E+00
